************************************************************************
file with basedata            : md329_.bas
initial value random generator: 21479304
************************************************************************
projects                      :  1
jobs (incl. supersource/sink ):  22
horizon                       :  160
RESOURCES
  - renewable                 :  2   R
  - nonrenewable              :  2   N
  - doubly constrained        :  0   D
************************************************************************
PROJECT INFORMATION:
pronr.  #jobs rel.date duedate tardcost  MPM-Time
    1     20      0       25        8       25
************************************************************************
PRECEDENCE RELATIONS:
jobnr.    #modes  #successors   successors
   1        1          3           2   3   4
   2        3          3           8  12  16
   3        3          3           5   9  12
   4        3          3           6  13  21
   5        3          3           7  11  16
   6        3          2           7   8
   7        3          3          10  14  17
   8        3          1          17
   9        3          3          10  15  17
  10        3          1          18
  11        3          2          15  19
  12        3          2          14  21
  13        3          2          14  16
  14        3          1          15
  15        3          1          18
  16        3          1          19
  17        3          2          18  19
  18        3          1          20
  19        3          1          22
  20        3          1          22
  21        3          1          22
  22        1          0        
************************************************************************
REQUESTS/DURATIONS:
jobnr. mode duration  R 1  R 2  N 1  N 2
------------------------------------------------------------------------
  1      1     0       0    0    0    0
  2      1     1       0    1    2    0
         2     7       9    0    0    3
         3     9       4    0    0    3
  3      1     2       0    6    9    0
         2     3       0    5    0    6
         3     9       0    3    8    0
  4      1     5       8    0    3    0
         2     7       7    0    0    9
         3     7       0    3    0   10
  5      1     2      10    0    0    7
         2     8      10    0    0    5
         3     9       0    3    1    0
  6      1     4       3    0    0    6
         2     5       2    0    2    0
         3     9       2    0    0    2
  7      1     2       0    5    8    0
         2     7       0    2    0    3
         3    10       5    0    0    1
  8      1     5       0    7    8    0
         2     7       0    7    5    0
         3     8       0    6    4    0
  9      1     2       0    9    7    0
         2     8       7    0    7    0
         3     8       7    0    0   10
 10      1     3       4    0    0    4
         2     4       0    7    6    0
         3     4       2    0    8    0
 11      1     2       0    8    0    9
         2     6       4    0    9    0
         3    10       0    3    7    0
 12      1     3       0    7    0    9
         2     3       5    0    7    0
         3     4       5    0    3    0
 13      1     4       0    6    6    0
         2     6       0    6    0   10
         3     9       0    5    0   10
 14      1     3       0    6    0    7
         2     8       9    0    0    6
         3     8       8    0    0    7
 15      1     7       5    0    0    8
         2     7       0    8    0    2
         3     8       0    6    7    0
 16      1     4       0    9    3    0
         2     6       0    8    0    5
         3     9       0    7    0    2
 17      1     5       0    2    6    0
         2     5       3    0    0    9
         3     9       0    2    0    8
 18      1     3       0    4    5    0
         2     7       5    0    5    0
         3    10       5    0    0    3
 19      1     1       6    0    0    4
         2     2       6    0    3    0
         3     5       6    0    2    0
 20      1     1       6    0    9    0
         2     5       5    0    0    4
         3     7       0    4    9    0
 21      1     1       0    9    3    0
         2     5       5    0    0    5
         3     8       0    3    3    0
 22      1     0       0    0    0    0
************************************************************************
RESOURCEAVAILABILITIES:
  R 1  R 2  N 1  N 2
   13   13   55   64
************************************************************************
MAXIMAL LAGS:
from  to  type  delay
    1   12   ES      0
    1    2   ES      0
    2   12   ES      0
    1    3   ES      0
    3   12   ES      0
    1    4   ES      0
    4   12   ES      0
    1    5   ES      0
    5   12   ES      0
    1    6   ES      0
    6   12   ES      0
    1    7   ES      0
    7   12   ES      0
    1    8   ES      0
    8   12   ES      0
    1    9   ES      0
    9   12   ES      0
    1   10   ES      0
   10   12   ES      0
    1   11   ES      0
   11   12   ES      0
    1   12   ES      0
    2    8   SS      6
    2    8   SE      7
    2    8   ES      8
    2    8   EE     -9
    2   16   SS      6
    2   16   SE      4
    2   16   ES     10
    2   16   EE      2
    3    5   SS     -8
    3    5   SE    -11
    3    5   ES     -7
    3    5   EE      6
    3    9   SS      4
    3    9   SE    -10
    3    9   ES    -10
    3    9   EE     -6
    4    6   SS    -12
    4    6   SE     12
    4    6   ES    -12
    4    6   EE      4
    4   13   SS     -4
    4   13   SE     -5
    4   13   ES      8
    4   13   EE     -6
    4   21   SS      6
    4   21   SE     -9
    4   21   ES     -3
    4   21   EE    -10
    5    7   SS      6
    5    7   SE     10
    5    7   ES      5
    5    7   EE     -9
    5   11   SS     12
    5   11   SE    -10
    5   11   ES     10
    5   11   EE      8
    5   16   SS      2
    5   16   SE      6
    5   16   ES      1
    5   16   EE     -5
    6    7   SS     -6
    6    7   SE    -12
    6    7   ES      8
    6    7   EE     -2
    6    8   SS    -12
    6    8   SE      2
    6    8   ES     12
    6    8   EE     -4
    7   10   SS      6
    7   10   SE     -2
    7   10   ES    -11
    7   10   EE     -3
    7   14   SS     -3
    7   14   SE     -5
    7   14   ES     -7
    7   14   EE      2
    7   17   SS     -9
    7   17   SE      6
    7   17   ES     -7
    7   17   EE      6
    8   17   SS      5
    8   17   SE      8
    8   17   ES    -12
    8   17   EE     -8
    9   10   SS     10
    9   10   SE      4
    9   10   ES     -4
    9   10   EE      8
    9   15   SS     -4
    9   15   SE     12
    9   15   ES     -9
    9   15   EE      1
    9   17   SS    -10
    9   17   SE      9
   17    9   SE      0
    9   17   ES      0
    9   17   EE      6
   10   18   SS     -6
   10   18   SE      9
   10   18   ES      1
   10   18   EE     -7
   11   15   SS     -4
   11   15   SE    -11
   11   15   ES      4
   11   15   EE     11
   11   19   SS      4
   11   19   SE     12
   11   19   ES     -2
   11   19   EE     -9
   12   14   SS      8
   12   14   SE      8
   12   14   ES      1
   12   14   EE     -5
   12   21   SS     -8
   12   21   SE     -5
   12   21   ES      4
   12   21   EE     -9
   13   14   SS     -6
   13   14   SE      3
   13   14   ES    -12
   13   14   EE     11
   13   16   SS     -2
   13   16   SE      3
   13   16   ES     10
   13   16   EE      9
   14   15   SS     -3
   14   15   SE    -10
   14   15   ES    -11
   14   15   EE     -5
   15   18   SS      3
   15   18   SE      1
   15   18   ES     -7
   15   18   EE     -7
   16   19   SS      1
   16   19   SE     11
   16   19   ES     -2
   16   19   EE      7
   17   18   SS     -4
   17   18   SE     -9
   17   18   ES     10
   17   18   EE     -2
   17   19   SS     -8
   17   19   SE     -1
   17   19   ES      5
   17   19   EE     -6
   18   20   SS      4
   18   20   SE     -1
   18   20   ES    -10
   18   20   EE      1
   19   22   SS     -5
   19   22   SE     -2
   19   22   ES      3
   19   22   EE      4
   20   22   SS    -10
   20   22   SE     -9
   20   22   ES      1
   20   22   EE     -3
   21   22   SS     12
   21   22   SE     -4
   21   22   ES     10
   21   22   EE      1
************************************************************************
